\ This file has been generated by DOcplex
\ ENCODING=ISO-8859-1
\Problem name: AMC Bin Packing Problem

Minimize
 obj: y_0 + y_1 + y_2 + y_3
Subject To
 c1: x_0_0 + x_0_1 + x_0_2 + x_0_3 = 1
 c2: x_1_0 + x_1_1 + x_1_2 + x_1_3 = 1
 c3: x_2_0 + x_2_1 + x_2_2 + x_2_3 = 1
 c4: x_3_0 + x_3_1 + x_3_2 + x_3_3 = 1
 c5: 30 x_0_0 + 26 x_1_0 + 36 x_2_0 + 21 x_3_0 - 60 y_0 <= 0
 c6: 30 x_0_1 + 26 x_1_1 + 36 x_2_1 + 21 x_3_1 - 60 y_1 <= 0
 c7: 30 x_0_2 + 26 x_1_2 + 36 x_2_2 + 21 x_3_2 - 60 y_2 <= 0
 c8: 30 x_0_3 + 26 x_1_3 + 36 x_2_3 + 21 x_3_3 - 60 y_3 <= 0

Bounds
 0 <= x_0_0 <= 1
 0 <= x_0_1 <= 1
 0 <= x_0_2 <= 1
 0 <= x_0_3 <= 1
 0 <= x_1_0 <= 1
 0 <= x_1_1 <= 1
 0 <= x_1_2 <= 1
 0 <= x_1_3 <= 1
 0 <= x_2_0 <= 1
 0 <= x_2_1 <= 1
 0 <= x_2_2 <= 1
 0 <= x_2_3 <= 1
 0 <= x_3_0 <= 1
 0 <= x_3_1 <= 1
 0 <= x_3_2 <= 1
 0 <= x_3_3 <= 1
 0 <= y_0 <= 1
 0 <= y_1 <= 1
 0 <= y_2 <= 1
 0 <= y_3 <= 1

Binaries
 x_0_0 x_0_1 x_0_2 x_0_3 x_1_0 x_1_1 x_1_2 x_1_3 x_2_0 x_2_1 x_2_2 x_2_3 x_3_0
 x_3_1 x_3_2 x_3_3 y_0 y_1 y_2 y_3
End
